Route #1: 26 7 8 35 53 14 59 19 54 13 27 52
Route #2: 11 66 65 38 10 31 25 55 18 50
Route #3: 17 40 12 58 72 39 9 32 44 3 51
Route #4: 75 68 2 30 74 28 62 73 1 63 33 6
Route #5: 16 49 24 23 56 41 43 42 64 22 61 21
Route #6: 57 15 5 37 20 70 60 71 69 36 47 48 29 45
Route #7: 4 34 46 67
Cost 716